
 102   30
  10   10   10   10   10   10   10   10   10   10   10   10   10   10   10   10   10   10   10   10   10   10   10   10   10   10   10   10   10   10

   0   0   0   0   0   0   0   0   0   0   0   0   0   0   0   0   0   0   0   0   0   0   0   0   0   0   0   0   0   0   0  30 2 3 4 5 6 7 8 9 10 11 12 13 14 15 16 18 19 20 21 24 25 26 27 28 29 30 33 34 35 44 
   3   0   0   0   0   0   1   0   0   2   0   0   0   1   0   0   0   0   0   4   0   0   0   8   1   0   0   0   2   0   0  15 101 98 97 57 55 54 52 50 49 47 46 40 36 31 17 
   6   0   0   1   0   0   8   0   0   0   0   0   0   0   0   0   0   0   0   0   0   0   0   0   0   0   0   0   0   0   0  16 101 100 98 75 66 59 58 57 54 52 49 47 46 43 32 23 
   4   0   2   0   0   0   0   0   0   0   0   0   0   0   0   0   0   1   0   0   0   0   0   0   0   0   0   0   0   0   0  17 100 98 97 75 72 65 59 57 56 52 51 50 45 41 40 37 22 
   2   0   0   0   0   0   0   0   0   0   0   0   0   0   0   0   0   0   0   0   0   1   1   0   3   0   0   2   0   0   0  15 100 98 97 75 63 61 59 57 50 47 46 43 40 37 22 
   9   0   0   0   0   0   0   0   0   0   0   0   0   0   0   1   1   0   0   0   0   0   0   0  10   0   0   0   2   0   0  20 101 100 98 97 92 88 74 73 70 67 66 65 64 61 59 58 56 55 43 39 
   3   0   0   0   0   0   0   3   0   2   0   0   0   0   0   0   0   0   0   0   0   0   0   0   0   0   0   8   0   0   1  19 99 98 97 94 92 75 72 71 65 64 60 59 58 57 55 53 50 45 42 
   5   0   0   0   0   0   3   0   0   0   0   0   0   0   0   0   0   0   0   4   0   0   5   0   0   0   0   0   0   0   0   9 98 97 75 68 52 43 39 38 36 
   9   0   5   0   0   0   0   0   0   0   0   0   0   0   0   0   0   6   0   0   0   0   0   0   0   0   0   0   0   0   0  22 100 99 98 97 96 95 87 74 73 69 68 67 65 64 63 62 61 60 51 50 48 43 
   5   0   6   0   0   0   0   0   0  10   0   0   0   0   0   0   0   0   2   3   0   0   0   3   0   0   0   0   0   1   9  17 100 99 98 97 95 91 73 68 67 64 61 60 58 55 52 47 43 
  10   0   0   0   0   0   0   0   0   0   0   0   1   0   0   0   0   0   0   0   0   0   0   0   0   0   0   2   0   0   0  15 101 99 98 97 96 93 88 62 61 59 56 52 45 43 40 
   4   0   0   0   0   0   0   0   0   0   0   0   0   0   3   0   0   0   0   0   0   0   0   8   0   1   1   0   0   0   0  13 100 97 95 74 73 71 55 53 50 49 48 45 36 
   7   1   0   0   1   0   0   0   0   0   0   0   0   0   0   0   0   0   0   8   0   5   0   0   0   0   0   0   0   0   0  16 99 97 96 95 90 73 67 64 62 60 59 58 51 50 45 43 
   3   0   0  10   8   0   0   0   0   0   0   0   0   0   0   0   0   0   0   0   0   7   0   0   0   0   0   7   0   0   0  14 99 98 97 96 92 70 62 61 60 56 50 49 45 43 
   5   0   0   0   0   0   0   0   0   0   0   0   0   0   0   0   8   0   0   0   0   0   0   4   0   0   0   0   0   0   0  12 98 97 95 94 72 71 70 65 58 55 45 36 
   7   0   0   0   0   0   6   0   0   0   0   0   0   0   0   0   0   0   0   0   0   0   0   0   0   0   0   0   7   0   0  11 101 100 97 93 91 72 68 65 53 40 36 
   5   4   0   0   0   0   0   0   0   0   2   2   6   0   0   0   0   0   0   0   1   0   0   3   0   0   0   0   0   0   0  10 100 96 88 67 59 51 45 43 41 37 
   9   0   7   0   0   0   0   0   0   0   0   0   0   0   0   0   0   0   0   0   0   0   0   0   5   0   0   0   6   6   0  17 100 99 97 95 94 91 90 85 71 68 64 63 59 58 57 49 47 
   3   9   0   8   0   0   0   0   0   0   0   9   0   0   0   0   0   0   0   0   0   0   0   0   0   0   0   0   0   7   0  16 101 100 98 95 90 75 74 73 69 65 64 63 60 54 53 43 
   4   0   0   0   0   0   0   0   0   0   0   2   3   0   0   0   0   0   0   0   0   0   0   0   0   7   0   5   0   0   0  15 100 98 97 96 95 75 73 72 69 68 65 61 52 50 48 
   1   0   4   3   0   0   6   0   0   0   0   0   0   0   0   0   0   7   0   0   0   0   0   0   0   0   0   0   0   0   0  13 101 98 97 93 91 88 87 84 67 63 59 43 41 
   2   0   0   0   7   0   0   0   4   0   0   2   0   0   0   0   0   0  10   0   0   0   0   0   0   0   0   7   0   0   0  15 99 85 83 82 81 74 73 70 68 67 64 62 60 58 48 
   6   0   0   0   0   1   0   8   3   0   0   0   0   0   0   0   0   0   0   0   0   0   0   0   0   0   8   0   0   0   0   9 92 91 89 70 68 65 61 60 38 
   8   0   9   0   2   0   0   7   0   0  10   0   0   0   0   0   0   0   0   0   0   0   7   0   0   0   0   0   0   0   0  11 95 93 90 88 87 86 84 70 67 45 43 
   8   0   0   9   0   0   0   6   0   0   4   0   0   0   0   8   0   0   0   0   0   0   0   0   0   0   6   0   0   3   0  13 98 95 93 92 91 87 79 73 70 68 62 60 43 
   2   0   0   0   0   0   0   0   0   7   0   0   0   0   0   0   0   5   0  10   8   0   4   0   0   0   0   0   0   0   0  21 100 98 96 93 92 91 90 87 86 85 83 81 79 77 72 71 70 69 68 64 62 
   7   0   0   0   0   0   0   0   0   0   0   0  10   0   0   0   0   0   0   0   0   0   0   0   0   0   0   0   0   0   0  14 101 100 94 93 92 90 89 88 87 86 84 74 67 45 
  10   0   0   0   0   0   0   0   0   0   0   0   0   0   0   0   0   0  10   0   3   0   0   0   8   5   0   0   0   5   0  11 98 90 88 87 86 79 69 64 62 57 43 
   1   0   0   0   0   4   0   8   3   0   0   0   0   0   0   0   0   0   0   0   0   0   0   0   0   0   0   0   0   8   0  19 99 97 96 95 94 93 92 88 84 83 82 81 71 70 69 68 67 65 63 
   6   0   0   0   0   5   0   0   0   0  10   5   0   0   0   0   0   0   0   8   0   0   0   0   0   0   0   0   0   0   0  15 100 97 96 95 94 92 87 85 83 82 73 68 67 65 50 
   1   0   0   0   0   0   0   0   0   0   0   6   0   5   0   9   0   0   0   0   0   0   0   0   8   0   0   0   0   0   0  16 99 96 93 92 90 85 83 82 79 77 75 69 67 64 61 60 
   4   0   0   0   0   0   0  10  10   0   0   0   0   0   0   0   0   0   0   0   0   0   0   0   0   0   0   0   0   0   0  12 96 92 90 89 88 84 72 70 67 62 61 45 
   4   0   0   0   0   0   7   0   0   0   0   0   0   0   7   8   0   0   0   0   0   0   0   0   0   0   0   4   0   0   0  11 96 94 93 92 87 83 74 67 64 62 45 
   8   0   0   0   0   0   0   5   0   0   0   0   4   0   0   8   4   0   0   0   7   0   0   7   6   0   9   0   0   0   0  18 101 98 97 94 92 90 89 85 84 83 81 79 78 77 72 71 68 60 
   8   0   0   0   0   0   0   0   0   0   0   5   0   0   0   0   0   0   9   6   0   0   0   0   9   0   0   0   0   0   0  18 98 97 96 94 93 92 91 90 89 88 87 85 82 79 76 68 65 64 
   4   0   0   0   0   3   0   0   0   0   3   0   0   0   0   0   0   3   5   0   0   0   0   4   0   0   0   0   0   0   0  14 96 92 90 89 85 84 83 77 69 67 63 62 61 60 
   7   0   0   0   0   0   0   0   0   0   0   0   0   0   0   3   0   0   3   0   3   0   0   0   0   0   0   0   0   0   0  14 95 94 90 86 85 84 83 82 81 77 71 70 68 58 
   9   0   0   0   0   0   0   0   0   4   0   8   0   0   0   0   0   0   0   0   0   6   0   0   0   0   0   0   0   0   0   5 99 95 88 85 40 
   1   0   0   0   0   5   0   5   0   5   0   0   0   0   0   0   5   0   0   0   0   0   0   0   4   0   0   0   0   0   0  13 99 95 93 91 86 85 84 81 80 77 72 69 63 
   6   0   0   0   0   0   0   4   0   0   0   0   0   0   0   0   0   0   0   1   0   0   0   0   0   0   0   9   0   0   0  12 90 87 83 82 81 79 78 77 74 73 67 64 
   2   0   0   0   0   0   0   4   0   0   0   0   0   6   3   0   0   0   0   0   0   0   0   0   0   0   0   0   0   0   0  12 95 90 89 85 83 82 80 79 73 71 70 62 
   3   0   0   0   0   0   0   0   0   4   0   0   0   0   0   8   0   7   0   0   0   6   0   0   0   0   0   0   0   0   0  11 100 96 95 93 87 84 83 82 80 79 70 
   3   0   0   8   0   0   0   0   0   0   0   0   0   0   8   0   0   0   0   0   0   6   0   0   0   0   0   0   0   0   0  10 94 89 85 83 81 80 78 77 72 71 
   8   0   0   0   6   7   0   0   0   0   5   0   0   9   0   0   0   0   0   7   0   0   0   9   0   0   0   0   0   0   0   9 91 88 84 81 80 79 73 69 67 
   1   0   0   0   0   0   0   0   0   0   0   0   0   0   0   0   0   0  10   0   0   0   0   6   0   0   0   0   0   0   0   8 91 85 82 81 77 69 68 63 
   3   0   0   0   0   0   0   0   0   0   0   0   0   0   0   4   0   0   5   0   0   4   9   0   0   0   0   0   0   0   0   9 89 86 85 83 81 80 77 70 67 
   3   0   0   0   0   0   0   0   0   0   9   0   0  10   0   0   0   0   0   0   0   0   0   0   0   0   0   0   0   0   0   7 92 83 82 81 76 69 65 
  10   0   0   0   0   0   0   0   0   0   0   7   0   0   0   0   5   0   0   0   0   0   0   0   0   4   0   0   0   0   0   9 94 92 91 90 88 86 80 79 77 
   7   0   0   0   0   0   0   0   0   0   0   0   0   0   0   0   0   0   8   0   0   0   4   0   4   4   0   0   7   0   0   8 88 87 86 82 81 79 77 67 
   2   0   0   0   0   0   0   0   0   0   0  10   9   0  10   0   0   0   0   0   0   0   0   0   0   0   5   0   0   0   5   8 93 89 88 84 80 79 78 76 
   4   0   0   0   0   6   0   0   0   0   0   0   7   0   0   0   0   7   0   0   0   5   0   0   0   0   0   0   0   0   0   8 94 92 89 84 83 81 77 76 
   8   0   0   0   0   0   0   0   0   0   0   0   0   0   0   0   0   0   0   0   0   0   0   0   0   8   7   0   0   0   8   6 92 89 87 83 80 70 
   9   0   0   0   0   8   0   0   0   8   0   0   0   0   0   0   7   0   0   0   0   0   0   0   0   0   0   0   7   0   0   6 86 84 83 81 77 70 
   1   0   0   0   0   0   0   0   0   0   0   0   0   0   0   0   0   0   0   0   0   4   0   0   0   0   5   0   0   0   0   6 91 87 81 79 78 67 
   2   5   5   0   0   0   0   0   0   0   0   0   0   0   0   0   0   0   0   0   0   0   0   5   0   0   0   0   0   0   0   5 96 90 81 77 62 
   8   0   0   0   0   0   0   0   0   0   7   0   0   0   0   0   0   0   5   0   0   0   0   0   0   0   0   0   0   0   0   5 95 87 78 77 68 
  10   0   0   0   0   0   0   0   5   0   5   0   0   0   0   0   0   0   0   0   0   0   8   0   0   0   0   0   0   0   0   4 96 81 78 67 
   2   0   0   0   0   0   0   0   0   5   0   0   0   0   0   0   0   0   0   2   0   0   0   0   0   0   0   0   0   0   0   4 93 89 87 79 
   4   0   0   0   5   0   0   0   0   0   0   5   0   0   5   0   6   0   0   0   0   0   0   0   0   7   0   0   0   0   0   4 83 79 77 76 
   2   0   0   0   0   0   0   0   0   0   0   3   7   0   0   0   0   0   0   0   0   0   0   0   0   0   0   0   0   6   0   3 88 86 76 
   6   0   0   0   0   0   0   0   4   0   0   0   4   0   0   0   6   0   0   0   0   0   0   0   0   0   0   0   0   0   0   3 81 78 76 
   4   0   8   0   0   0   0   0   0   0   0   0   0   0   0   0   0   0   0   0   0   0   0   0   5   0   0   0   0   0   0   2 78 76 
   3   0   0   0   0   0   0   0   0   0   0   0   0   6   0   0   0   0   0   9   0   0   0   0   0   0   0   0   0   0   0   2 79 78 
   6   0   0   0   0   0   0   5   0   0   0   0   0   0   0   8   0   0   0   0   0   0   0   0   0   4   0   0  10   0   0   2 84 80 
   4   0   0   0   0   8   0   0   0   0   0   0   0   0   0   0   0   0   0   0   0   0  10   0   0   0   0   0   0   0   0   2 86 77 
   9   0   0   0   0   0   5   0   7   0   0   0   0   0   0   0   0   0   7   0   0   0   0   0   0   0   0   0   0   0   5   2 85 76 
   5   5  10   0   0   0   0   0   8   0   0   0   0   0   7   0   0   0   0   7   0   0   0   0   0   0   0   0   0   7   0   1 76 
   9  10   0   0   0   0   0   0   0   7   0   0   0   0   0   0   0   0   0   9   0   0   0   0   0   0   0   0   0   0   0   1 80 
   8   0   7   0   0   0   5   0   0   0   0   0   0   8   0   0   0   7   0   0   0   9   0   0   0   0   0   7   0   0   0   1 78 
   7   0   0   0   0   0   0   0   0   0   0   0   5   0   0   0   8   0   0   0   0   0   0   6   0   0   0   0   8   0   0   1 76 
   2   0   0   0   0   9   8   0  10   0   0   0   0   0   0   0   0   0   0   0  10   0   0   0   0   0   0   6   4  10   0   1 76 
  10   8   0   7   0   0   0   0   0   0   0   0   7   5   0   0   0   0   0   0   0   0   0   0   0   4   0   0   0   0   0   1 82 
   3   0   0   0   6   0   0   0   0   0   0   0   0   0   0   0   0   0   4   7   0   0   0   0   9  10   0   0   7   0   5   1 76 
   2   0   0   0   0   0   0   0   8   0   0   0   0   0   0   0   0   0   0   0   0   0   0   0   0   4   0   0   0   0   4   1 76 
   2   0   0   0   0   0   0   0   0   0   0   0   8   0   0   0   0   0   0   0   0   0   0   0   0   0   0   0   0   0   0   1 91 
   4   0   0   0   0   0   0   0   0   0   0   0   0   1   0   0   0   0   0   0   0   7   0   0   0   0   0   0   0   0   5   1 102
  10   0   0   0   0   0   0   0   0   0   0   0   0   0   0   0   0   0   0   0   7   0   0   0   2   9   0   0   0   0   0   1 102
   3   0   0   0   0   5   5   0   0   0   0   0   0   0   0   0   0   0   0   6   0   8   0   9   0   0   0   0   0   0   0   1 102
   7   0   0   5   0   0   0   0   0   0   0   0   0   0   0   0   0   0   8   0   0   0   0   0   0   0   0   0  10   0   0   1 102
   6   0   0   0   0   0   0   0   0   0   0   0   0   0   0   0   0   0   2   0   0   0   0   0   0   0   9   0   0   0   0   1 102
   1   0   0   0  10   8   9   0   0   0   0   0  10   0   0   0   7   0   0   0   0   0   0  10   0   0   0   0   0   0   0   1 102
   9   0   0   4   0   6   0   0   0  10   5  10   0   0   0   0   0   9   0   0   6   0   0   5   0   0   0   0   0   0   0   1 102
   8   0   3   0   0   0   8   0   0   0   0   0   0   0   0   0   0   0   0   0   0   0   4   0   0   0   0   0   0   0   9   1 102
   2   0   0   0   0   0   0   0   0   0   0   0   0   0   0   0   0   0   0   0   0   0   0   0   0   0   0   0   0   7   0   1 102
   5   0   0   0   0   0   0   0   6   0   0   0   0   0   0   0   0   0   8   0   0   0   0   0   0   0   0   0   0   0   0   1 102
   9   0   0   0   0   4   0   0   0   0   0   0   0   0   0   0   0   0   2   0   0   0   0   0   0   0   5   5   2   0   0   1 102
   5   0   0   0   7   6   0   6   0   0   0   0   0   0   0   0   0   0   0   0   0   0   0   0   0   0   0   0   0   0   8   1 102
   3   0   0   0   0   0   0   0   0   0   0   0   3  10   0   0   0   0   5   0   0   0   0   0   0   0   0   0   0   0   5   1 102
   2   0   0   0   0   0   0   0   0   4   0  10   0   0   0   0   6   0   0   0   0   0   0   4   0   0   6  10   0   0   0   1 102
   2   0   0   0   0   8   0   0   0   0   0   0   0   5   0   0   0   0   0   0   0   0   0   0   0   0   0   0   5   4   0   1 102
   4   0   0   5   7   0   0   0   0   0   0   0   0   0   0   0   0   0   0   0   9   0   0   0   0   0   0   0   0   0   0   1 102
   7   6   0   0   0   0   6   5   0   0   0   6   0   0   0   0   0   0   5   0   0   0   0   0   8   0   0   0   0   7   0   1 102
   5   0   0   0   0   0   0   0   0   0   0   0   0   0   0   3  10   0   0   0   0   0   4   0   0   0   0   0   0   0   4   1 102
   5   0   0   6   0   9   0   8   0   0   0   0   0   0   0   0   0   0   0   0   0   0   0   0   6   0   0   0   0   7   8   1 102
   1   0   0   0   0   0   0   0   4   8   0   0   0   6   0   0   0   0   0   0   0   9   0   0   0   0   5   0   0   0   0   1 102
   7   0   0   0   0   0   0   0   0   8   0   0   0   0   5   0   0   0   0   0   0   7   0   0   0   9   0   0   7   0   8   1 102
   7   0   6   0   0   0   6   0   6   0   0   0   0   0   0   0   5   0   0   0   0   0   0   0   8   4   0   0   0   0   0   1 102
   9   0   0   0   0   0   0   0   0   0   0   0   0   0   0   0   0   0   0   0   0   0   0   5   0   0   6   0   0   0   6   1 102
   2   0   0   0   0   0   0   0   0   0   0   0   0   0   0   0   0   8   0   5   0   0   0   0   0   0   0   0   0   0   6   1 102
   5   0   0   0   7   0   7   0   0   0   0   0   0   0   0   0   0   0   0   6   0   0   0   0   0   0   0   0   0   0   0   1 102
  10   0   0   0   0   0   0   0   0   0   0   0   0   0   0   0   0   0   0   0   0   0  10   0   0  10   0   0   0   0   0   1 102
   0   0   0   0   0   0   0   0   0   0   0   0   0   0   0   0   0   0   0   0   0   0   0   0   0   0   0   0   0   0   0   0 
